Fe20                                    
1.0
        5.5397386551         0.0000000000         0.0000000000
       -0.0000011776         8.8438396454         0.0000000000
        0.0000000000         0.0000000000         23.978061676
   Fe    H
   80    3
Cartesian
     4.154811972         4.538092759         0.000000000
     2.769865349         0.122118142         0.000000000
     1.384925557         4.538106464         0.000000000
     0.000000863         0.119693277         0.000000000
     1.384740778         3.565705948        16.057524111
     0.000000375         7.988181106        16.054472186
     4.155008567         3.565704366        16.057536554
     2.769870906         7.987214869        16.054616977
     1.385047141         0.890052446        16.991220960
     5.539728702         5.312709729        16.995408591
     4.154710758         0.890046121        16.991230010
     2.769861356         5.312451434        16.994018370
     0.000013262         2.680294915        17.835919911
     4.154428605         7.104671973        17.835875795
     2.769891424         2.680712142        17.836701557
     1.385274808         7.104660376        17.835846384
     1.386261857         2.647380937        13.324218432
     0.000002029         7.069299178        13.319042150
     4.153625176         2.647372503        13.324209383
     2.769874330         7.069833692        13.318614564
     1.384872483         8.841187107        14.231622119
     5.539701745         4.420496034        14.238882036
     4.155039563         8.841177092        14.231640218
     2.769814917         4.420823121        14.238092472
     0.000042370         1.772197621        15.152958557
     4.154912791         6.195498271        15.153000411
     2.769917300         1.771812813        15.153328453
     1.384772869         6.195490363        15.152984574
     1.368794377         1.738463685        10.642760417
     5.539522552         6.130669760        10.643086197
     4.171798523         1.738484507        10.642746843
     2.769714970         6.140578296        10.643615590
     0.000007702         3.534397883        11.492884510
     4.155627098         7.945506452        11.470558398
     2.769865557         3.522228733        11.474043566
     1.384471912         7.945466390        11.470534644
     0.000278445         0.858301523        12.419625730
     4.153752280         5.278346396        12.424464920
     2.770108274         0.856295383        12.418434597
     1.385722960         5.278371699        12.424415148
     4.166046859         4.306416610         9.489030838
     2.770522275         8.765118520         9.489030838
     1.372816130         4.306554719         9.489030838
     0.000625593         8.746719438         9.489030838
     1.384740778         3.565705948         2.920537565
     0.000000375         7.988181106         2.923589773
     4.155008567         3.565704366         2.920525122
     2.769870906         7.987214869         2.923444982
     1.385047141         0.890052446         1.986840433
     5.539728702         5.312709729         1.982652237
     4.154710758         0.890046121         1.986831525
     2.769861356         5.312451434         1.984042599
     0.000013262         2.680294915         1.142141270
     4.154428605         7.104671973         1.142186235
     2.769891424         2.680712142         1.141359624
     1.385274808         7.104660376         1.142215080
     1.386261857         2.647380937         5.653843809
     0.000002029         7.069299178         5.659018961
     4.153625176         2.647372503         5.653852293
     2.769874330         7.069833692         5.659446547
     1.384872483         8.841187107         4.746440123
     5.539701745         4.420496034         4.739179640
     4.155039563         8.841177092         4.746421458
     2.769814917         4.420823121         4.739968921
     0.000042370         1.772197621         3.825103685
     4.154912791         6.195498271         3.825060983
     2.769917300         1.771812813         3.824733506
     1.384772869         6.195490363         3.825077950
     1.368794377         1.738463685         8.335300693
     5.539522552         6.130669760         8.334976044
     4.171798523         1.738484507         8.335314267
     2.769714970         6.140578296         8.334446086
     0.000007702         3.534397883         7.485177166
     4.155627098         7.945506452         7.507504409
     2.769865557         3.522228733         7.504018110
     1.384471912         7.945466390         7.507528164
     0.000278445         0.858301523         6.558435381
     4.153752280         5.278346396         6.553596190
     2.770108274         0.856295383         6.559625948
     1.385722960         5.278371699         6.553645962
     1.388143473         7.569936712         9.489030838
     4.153693201         7.569770138         9.489030838
     2.768828472         3.106104735         9.489179023
